# Solution for model r5_t18_m0_1 Batch Number: 2
# Finished Task: 18 / 18
# Makespan: 591.0, Total Distance: 327.0, Total Time: 1.0401
# R O S F Batch
0 0 18 0.0 0.0 -1
1 1 19 0.0 0.0 -1
2 2 22 0.0 0.0 -1
3 3 8 0.0 0.0 -1
4 4 12 0.0 0.0 -1
5 3 11 130.0 164.0 0
6 4 -1 455.0 482.0 0
7 2 14 347.0 376.0 0
8 3 5 75.0 100.0 0
9 2 15 517.0 542.0 1
10 2 9 463.0 501.0 1
11 3 13 195.0 224.0 0
12 4 6 402.0 423.0 0
13 3 16 442.0 462.0 1
14 2 10 430.0 463.0 1
15 2 -1 542.0 563.0 1
16 3 20 474.0 499.0 1
17 2 7 294.0 320.0 0
18 0 -1 418.0 444.0 0
19 1 21 200.0 238.0 0
20 3 -1 552.0 591.0 1
21 1 -1 475.0 501.0 1
22 2 17 228.0 265.0 0
